50
22429

871 557
84 474
360 779
814 870
680 298
863 502
590 433
855 17
485 582
159 53
983 55
626 963
431 113
143 424
448 385
177 427
463 207
72 408
645 905
668 143
460 861
775 887
251 435
183 79
385 552
890 990
888 361
113 635
815 267
155 836
564 650
865 889
981 752
542 546
275 367
373 333
616 635
217 196
312 851
301 70
679 269
77 760
885 100
598 805
91 945
709 490
716 5
88 538
10 109
442 400
